NAME : MM9_depots
COMMENT : Instance 9 in MD algorithm. Coordinates of depots and vhcl speeds given.
TYPE : TSP
DIMENSION : 8
EDGE_WEIGHT_TYPE : EUC
NODE_COORD_SECTION
401 60.3296 84.8597 1
402 60.3296 84.8597 1
403 60.3296 84.8597 1
404 78.3266 5.0646 1
405 78.3266 5.0646 1
406 11.3931 46.6202 1
407 11.3931 46.6202 1
408 97.8564 32.5653 1
EOF
